(set-logic QF_LIA)
(set-info :ran/ran_7_1.smt2)
(set-info :smt-lib-version 2.0)
(declare-fun x0 () Int)
(declare-fun x1 () Real)
(declare-fun x2 () Real)
(declare-fun x3 () Real)
(declare-fun x4 () Real)
(declare-fun x5 () Real)
(declare-fun x6 () Real)
(define-fun ie0 () Bool (<= (+ (* (- 60) x3) (* (- 64) x3) ) 77))
(define-fun ie1 () Bool (<= (+ (* (- 55) x2) (* (- 71) x6) ) (- 40)))
(define-fun ie2 () Bool (<= (+ (* 4 x5) (* 57 x4) ) 20))
(define-fun ie3 () Bool (<= (+ (* 93 x2) (* 96 x0) ) 83))
(define-fun ie4 () Bool (<= (+ (* (- 81) x3) (* 57 x5) ) (- 63)))
(define-fun ie5 () Bool (<= (+ (* 24 x3) (* (- 56) x2) ) (- 26)))
(define-fun ie6 () Bool (<= (+ (* (- 86) x3) (* (- 19) x6) ) (- 60)))
(assert ie0)
(assert ie1)
(assert ie2)
(assert ie3)
(assert ie4)
(assert ie5)
(assert ie6)
(check-sat)
(exit)
